c description: There is a graph of 9 vertices with a 2-clique and a 3-coloring
c generator: CNFgen (0.9.0)
c copyright: (C) 2012-2020 Massimo Lauria <massimo.lauria@uniroma1.it>
c url: https://massimolauria.net/cnfgen
c
p cnf 81 299
-37 -38 0
-37 -39 0
-37 -40 0
-37 -41 0
-37 -42 0
-37 -43 0
-37 -44 0
-37 -45 0
-38 -39 0
-38 -40 0
-38 -41 0
-38 -42 0
-38 -43 0
-38 -44 0
-38 -45 0
-39 -40 0
-39 -41 0
-39 -42 0
-39 -43 0
-39 -44 0
-39 -45 0
-40 -41 0
-40 -42 0
-40 -43 0
-40 -44 0
-40 -45 0
-41 -42 0
-41 -43 0
-41 -44 0
-41 -45 0
-42 -43 0
-42 -44 0
-42 -45 0
-43 -44 0
-43 -45 0
-44 -45 0
37 38 39 40 41 42 43 44 45 0
-46 -47 0
-46 -48 0
-46 -49 0
-46 -50 0
-46 -51 0
-46 -52 0
-46 -53 0
-46 -54 0
-47 -48 0
-47 -49 0
-47 -50 0
-47 -51 0
-47 -52 0
-47 -53 0
-47 -54 0
-48 -49 0
-48 -50 0
-48 -51 0
-48 -52 0
-48 -53 0
-48 -54 0
-49 -50 0
-49 -51 0
-49 -52 0
-49 -53 0
-49 -54 0
-50 -51 0
-50 -52 0
-50 -53 0
-50 -54 0
-51 -52 0
-51 -53 0
-51 -54 0
-52 -53 0
-52 -54 0
-53 -54 0
46 47 48 49 50 51 52 53 54 0
-37 -46 0
-38 -47 0
-39 -48 0
-40 -49 0
-41 -50 0
-42 -51 0
-43 -52 0
-44 -53 0
-45 -54 0
1 -37 -47 0
1 -46 -38 0
2 -37 -48 0
2 -46 -39 0
3 -37 -49 0
3 -46 -40 0
4 -37 -50 0
4 -46 -41 0
5 -37 -51 0
5 -46 -42 0
6 -37 -52 0
6 -46 -43 0
7 -37 -53 0
7 -46 -44 0
8 -37 -54 0
8 -46 -45 0
9 -38 -48 0
9 -47 -39 0
10 -38 -49 0
10 -47 -40 0
11 -38 -50 0
11 -47 -41 0
12 -38 -51 0
12 -47 -42 0
13 -38 -52 0
13 -47 -43 0
14 -38 -53 0
14 -47 -44 0
15 -38 -54 0
15 -47 -45 0
16 -39 -49 0
16 -48 -40 0
17 -39 -50 0
17 -48 -41 0
18 -39 -51 0
18 -48 -42 0
19 -39 -52 0
19 -48 -43 0
20 -39 -53 0
20 -48 -44 0
21 -39 -54 0
21 -48 -45 0
22 -40 -50 0
22 -49 -41 0
23 -40 -51 0
23 -49 -42 0
24 -40 -52 0
24 -49 -43 0
25 -40 -53 0
25 -49 -44 0
26 -40 -54 0
26 -49 -45 0
27 -41 -51 0
27 -50 -42 0
28 -41 -52 0
28 -50 -43 0
29 -41 -53 0
29 -50 -44 0
30 -41 -54 0
30 -50 -45 0
31 -42 -52 0
31 -51 -43 0
32 -42 -53 0
32 -51 -44 0
33 -42 -54 0
33 -51 -45 0
34 -43 -53 0
34 -52 -44 0
35 -43 -54 0
35 -52 -45 0
36 -44 -54 0
36 -53 -45 0
-55 -56 0
-55 -57 0
-56 -57 0
55 56 57 0
-58 -59 0
-58 -60 0
-59 -60 0
58 59 60 0
-61 -62 0
-61 -63 0
-62 -63 0
61 62 63 0
-64 -65 0
-64 -66 0
-65 -66 0
64 65 66 0
-67 -68 0
-67 -69 0
-68 -69 0
67 68 69 0
-70 -71 0
-70 -72 0
-71 -72 0
70 71 72 0
-73 -74 0
-73 -75 0
-74 -75 0
73 74 75 0
-76 -77 0
-76 -78 0
-77 -78 0
76 77 78 0
-79 -80 0
-79 -81 0
-80 -81 0
79 80 81 0
-1 -55 -58 0
-1 -56 -59 0
-1 -57 -60 0
-2 -55 -61 0
-2 -56 -62 0
-2 -57 -63 0
-3 -55 -64 0
-3 -56 -65 0
-3 -57 -66 0
-4 -55 -67 0
-4 -56 -68 0
-4 -57 -69 0
-5 -55 -70 0
-5 -56 -71 0
-5 -57 -72 0
-6 -55 -73 0
-6 -56 -74 0
-6 -57 -75 0
-7 -55 -76 0
-7 -56 -77 0
-7 -57 -78 0
-8 -55 -79 0
-8 -56 -80 0
-8 -57 -81 0
-9 -58 -61 0
-9 -59 -62 0
-9 -60 -63 0
-10 -58 -64 0
-10 -59 -65 0
-10 -60 -66 0
-11 -58 -67 0
-11 -59 -68 0
-11 -60 -69 0
-12 -58 -70 0
-12 -59 -71 0
-12 -60 -72 0
-13 -58 -73 0
-13 -59 -74 0
-13 -60 -75 0
-14 -58 -76 0
-14 -59 -77 0
-14 -60 -78 0
-15 -58 -79 0
-15 -59 -80 0
-15 -60 -81 0
-16 -61 -64 0
-16 -62 -65 0
-16 -63 -66 0
-17 -61 -67 0
-17 -62 -68 0
-17 -63 -69 0
-18 -61 -70 0
-18 -62 -71 0
-18 -63 -72 0
-19 -61 -73 0
-19 -62 -74 0
-19 -63 -75 0
-20 -61 -76 0
-20 -62 -77 0
-20 -63 -78 0
-21 -61 -79 0
-21 -62 -80 0
-21 -63 -81 0
-22 -64 -67 0
-22 -65 -68 0
-22 -66 -69 0
-23 -64 -70 0
-23 -65 -71 0
-23 -66 -72 0
-24 -64 -73 0
-24 -65 -74 0
-24 -66 -75 0
-25 -64 -76 0
-25 -65 -77 0
-25 -66 -78 0
-26 -64 -79 0
-26 -65 -80 0
-26 -66 -81 0
-27 -67 -70 0
-27 -68 -71 0
-27 -69 -72 0
-28 -67 -73 0
-28 -68 -74 0
-28 -69 -75 0
-29 -67 -76 0
-29 -68 -77 0
-29 -69 -78 0
-30 -67 -79 0
-30 -68 -80 0
-30 -69 -81 0
-31 -70 -73 0
-31 -71 -74 0
-31 -72 -75 0
-32 -70 -76 0
-32 -71 -77 0
-32 -72 -78 0
-33 -70 -79 0
-33 -71 -80 0
-33 -72 -81 0
-34 -73 -76 0
-34 -74 -77 0
-34 -75 -78 0
-35 -73 -79 0
-35 -74 -80 0
-35 -75 -81 0
-36 -76 -79 0
-36 -77 -80 0
-36 -78 -81 0